50
154403

7312.0 6312
7891.0 6891
1664.0 664
5243.0 4243
9377.0 8377
8962.0 7962
7635.0 6635
5970.0 4970
8809.0 7809
6867.0 5867
10559.0 9559
4579.0 3579
9269.0 8269
3282.0 2282
5618.0 4618
3290.0 2290
2554.0 1554
5105.0 4105
9726.0 8726
10862.0 9862
3408.0 2408
6082.0 5082
2619.0 1619
2209.0 1209
6410.0 5410
8736.0 7736
10172.0 9172
2650.0 1650
6797.0 5797
8114.0 7114
6181.0 5181
4351.0 3351
10053.0 9053
8816.0 7816
8254.0 7254
9542.0 8542
5268.0 4268
2021.0 1021
9990.0 8990
1231.0 231
2529.0 1529
7535.0 6535
1019.0 19
9087.0 8087
6459.0 5459
4997.0 3997
6329.0 5329
2032.0 1032
4131.0 3131
10299.0 9299
